[VALIDATOR STDOUT]
Checking plan: /home/jfan5/Safety-gen/runs/benchmark/optic/ferry_20260215_224255/ferry/optic_results/ferry-l23-c12-s23001.plan
Plan to validate:

Plan size: 49
1:
(sail l6 l9)
 
2:
(board c3 l9)
 
3:
(sail l9 l4)
 
4:
(debark c3 l4)
 
5:
(board c2 l4)
 
6:
(sail l4 l17)
 
7:
(debark c2 l17)
 
8:
(sail l17 l9)
 
9:
(sail l9 l7)
 
10:
(board c5 l7)
 
11:
(sail l7 l9)
 
12:
(debark c5 l9)
 
13:
(sail l9 l4)
 
14:
(sail l4 l3)
 
15:
(board c11 l3)
 
16:
(sail l3 l4)
 
17:
(sail l4 l10)
 
18:
(debark c11 l10)
 
19:
(sail l10 l4)
 
20:
(sail l4 l22)
 
21:
(board c6 l22)
 
22:
(sail l22 l14)
 
23:
(debark c6 l14)
 
24:
(sail l14 l4)
 
25:
(sail l4 l22)
 
26:
(board c1 l22)
 
27:
(sail l22 l20)
 
28:
(debark c1 l20)
 
29:
(board c8 l20)
 
30:
(sail l20 l19)
 
31:
(debark c8 l19)
 
32:
(board c4 l19)
 
33:
(sail l19 l4)
 
34:
(sail l4 l1)
 
35:
(debark c4 l1)
 
36:
(sail l1 l4)
 
37:
(sail l4 l22)
 
38:
(board c0 l22)
 
39:
(sail l22 l4)
 
40:
(debark c0 l4)
 
41:
(sail l4 l21)
 
42:
(sail l21 l20)
 
43:
(board c10 l20)
 
44:
(sail l20 l21)
 
45:
(debark c10 l21)
 
46:
(sail l21 l11)
 
47:
(board c7 l11)
 
48:
(sail l11 l21)
 
49:
(debark c7 l21)
 

Plan Validation details
-----------------------

Checking next happening (time 1)
Deleting (at-ferry l6)
Adding (at-ferry l9)

Checking next happening (time 2)
Deleting (at c3 l9)
Deleting (empty-ferry)
Adding (on c3)

Checking next happening (time 3)
Deleting (at-ferry l9)
Adding (at-ferry l4)

Checking next happening (time 4)
Deleting (on c3)
Adding (at c3 l4)
Adding (empty-ferry)

Checking next happening (time 5)
Deleting (at c2 l4)
Deleting (empty-ferry)
Adding (on c2)

Checking next happening (time 6)
Deleting (at-ferry l4)
Adding (at-ferry l17)

Checking next happening (time 7)
Deleting (on c2)
Adding (at c2 l17)
Adding (empty-ferry)

Checking next happening (time 8)
Deleting (at-ferry l17)
Adding (at-ferry l9)

Checking next happening (time 9)
Deleting (at-ferry l9)
Adding (at-ferry l7)

Checking next happening (time 10)
Deleting (at c5 l7)
Deleting (empty-ferry)
Adding (on c5)

Checking next happening (time 11)
Deleting (at-ferry l7)
Adding (at-ferry l9)

Checking next happening (time 12)
Deleting (on c5)
Adding (at c5 l9)
Adding (empty-ferry)

Checking next happening (time 13)
Deleting (at-ferry l9)
Adding (at-ferry l4)

Checking next happening (time 14)
Deleting (at-ferry l4)
Adding (at-ferry l3)

Checking next happening (time 15)
Deleting (at c11 l3)
Deleting (empty-ferry)
Adding (on c11)

Checking next happening (time 16)
Deleting (at-ferry l3)
Adding (at-ferry l4)

Checking next happening (time 17)
Deleting (at-ferry l4)
Adding (at-ferry l10)

Checking next happening (time 18)
Deleting (on c11)
Adding (at c11 l10)
Adding (empty-ferry)

Checking next happening (time 19)
Deleting (at-ferry l10)
Adding (at-ferry l4)

Checking next happening (time 20)
Deleting (at-ferry l4)
Adding (at-ferry l22)

Checking next happening (time 21)
Deleting (at c6 l22)
Deleting (empty-ferry)
Adding (on c6)

Checking next happening (time 22)
Deleting (at-ferry l22)
Adding (at-ferry l14)

Checking next happening (time 23)
Deleting (on c6)
Adding (at c6 l14)
Adding (empty-ferry)

Checking next happening (time 24)
Deleting (at-ferry l14)
Adding (at-ferry l4)

Checking next happening (time 25)
Deleting (at-ferry l4)
Adding (at-ferry l22)

Checking next happening (time 26)
Deleting (at c1 l22)
Deleting (empty-ferry)
Adding (on c1)

Checking next happening (time 27)
Deleting (at-ferry l22)
Adding (at-ferry l20)

Checking next happening (time 28)
Deleting (on c1)
Adding (at c1 l20)
Adding (empty-ferry)

Checking next happening (time 29)
Deleting (at c8 l20)
Deleting (empty-ferry)
Adding (on c8)

Checking next happening (time 30)
Deleting (at-ferry l20)
Adding (at-ferry l19)

Checking next happening (time 31)
Deleting (on c8)
Adding (at c8 l19)
Adding (empty-ferry)

Checking next happening (time 32)
Deleting (at c4 l19)
Deleting (empty-ferry)
Adding (on c4)

Checking next happening (time 33)
Deleting (at-ferry l19)
Adding (at-ferry l4)

Checking next happening (time 34)
Deleting (at-ferry l4)
Adding (at-ferry l1)

Checking next happening (time 35)
Deleting (on c4)
Adding (at c4 l1)
Adding (empty-ferry)

Checking next happening (time 36)
Deleting (at-ferry l1)
Adding (at-ferry l4)

Checking next happening (time 37)
Deleting (at-ferry l4)
Adding (at-ferry l22)

Checking next happening (time 38)
Deleting (at c0 l22)
Deleting (empty-ferry)
Adding (on c0)

Checking next happening (time 39)
Deleting (at-ferry l22)
Adding (at-ferry l4)

Checking next happening (time 40)
Deleting (on c0)
Adding (at c0 l4)
Adding (empty-ferry)

Checking next happening (time 41)
Deleting (at-ferry l4)
Adding (at-ferry l21)

Checking next happening (time 42)
Deleting (at-ferry l21)
Adding (at-ferry l20)

Checking next happening (time 43)
Deleting (at c10 l20)
Deleting (empty-ferry)
Adding (on c10)

Checking next happening (time 44)
Deleting (at-ferry l20)
Adding (at-ferry l21)

Checking next happening (time 45)
Deleting (on c10)
Adding (at c10 l21)
Adding (empty-ferry)

Checking next happening (time 46)
Deleting (at-ferry l21)
Adding (at-ferry l11)

Checking next happening (time 47)
Deleting (at c7 l11)
Deleting (empty-ferry)
Adding (on c7)

Checking next happening (time 48)
Deleting (at-ferry l11)
Adding (at-ferry l21)

Checking next happening (time 49)
Deleting (on c7)
Adding (at c7 l21)
Adding (empty-ferry)
Plan executed successfully - checking goal
Plan valid
Final value: 49 

Successful plans:
Value: 49
 /home/jfan5/Safety-gen/runs/benchmark/optic/ferry_20260215_224255/ferry/optic_results/ferry-l23-c12-s23001.plan 49
